RT is False
Default write of storage_offers_DA.csv just to have a file (but constraint should be inactive)
Reading model...
...model read.
creating competitive generators file...
...competitive generators recorded.
Loading data...
.. day-ahead data with real-time VRE data read.
Compiling instance...
...instance created.
Creating Offer Mitigation (model will solve as dispatch if TRUE)...
NOTE: storage offers will not be mitigated
...storage offer mitigation file created
Converting model to MPEC...
...converted
NOTE: initial MIP solve with only storage competitive to get feasible solution
Solving...

Welcome to IBM(R) ILOG(R) CPLEX(R) Interactive Optimizer 12.9.0.0
  with Simplex, Mixed Integer & Barrier Optimizers
5725-A06 5725-A29 5724-Y48 5724-Y49 5724-Y54 5724-Y55 5655-Y21
Copyright IBM Corp. 1988, 2019.  All Rights Reserved.

Type 'help' for a list of available commands.
Type 'help' followed by a command name for more
information on commands.

CPLEX> Logfile 'cplex.log' closed.
Logfile 'C:\Users\llavin\Desktop\test826\logs\tmp4gxz3vda.cplex.log' open.
CPLEX> New value for parallel optimization mode: -1
CPLEX> New value for mixed integer optimality gap tolerance: 0.01
CPLEX> New value for integrality tolerance: 1e-09
CPLEX> New value for feasibility tolerance: 0.001
CPLEX> New value for deterministic time limit in ticks: 75000
CPLEX> Problem 'C:\Users\llavin\Desktop\test826\logs\tmpfbnn__mu.pyomo.lp' read.
Read time = 0.23 sec. (14.73 ticks)
CPLEX> Problem name         : C:\Users\llavin\Desktop\test826\logs\tmpfbnn__mu.pyomo.lp
Objective sense      : Maximize
Variables            :   53805  [Nneg: 1,  Box: 22000,  Free: 4464,
                                 Binary: 27340]
Objective nonzeros   :    9040
Linear constraints   :  123205  [Less: 41346,  Greater: 59096,  Equal: 22763]
  Nonzeros           :  291764
  RHS nonzeros       :   67502

Variables            : Min LB: -5000.000        Max UB: 1000000.       
Objective nonzeros   : Min   : 0.008333333      Max   : 2500.000       
Linear constraints   :
  Nonzeros           : Min   : 0.008333333      Max   : 1000000.       
  RHS nonzeros       : Min   : 0.008333333      Max   : 1000000.       
CPLEX> CPXPARAM_Parallel                                -1
CPXPARAM_Simplex_Tolerances_Feasibility          0.001
CPXPARAM_DetTimeLimit                            75000
CPXPARAM_MIP_Tolerances_MIPGap                   0.01
CPXPARAM_MIP_Tolerances_Integrality              1.0000000000000001e-09
Tried aggregator 3 times.
MIP Presolve eliminated 88599 rows and 18931 columns.
MIP Presolve added 3389 rows and 0 columns.
MIP Presolve modified 24906 coefficients.
Aggregator did 12997 substitutions.
Reduced MIP has 24998 rows, 21329 columns, and 71285 nonzeros.
Reduced MIP has 8433 binaries, 0 generals, 0 SOSs, and 0 indicators.
Presolve time = 0.30 sec. (173.82 ticks)
Probing fixed 365 vars, tightened 2850 bounds.
Probing time = 1.16 sec. (857.32 ticks)
Tried aggregator 2 times.
MIP Presolve eliminated 828 rows and 732 columns.
MIP Presolve modified 2224 coefficients.
Aggregator did 34 substitutions.
Reduced MIP has 24136 rows, 20563 columns, and 68785 nonzeros.
Reduced MIP has 8068 binaries, 0 generals, 0 SOSs, and 0 indicators.
Presolve time = 0.11 sec. (69.54 ticks)
Probing time = 0.05 sec. (15.78 ticks)
Clique table members: 6337.
MIP emphasis: balance optimality and feasibility.
MIP search method: dynamic search.
Parallel mode: opportunistic, using up to 32 threads.
Root relaxation solution time = 0.44 sec. (498.87 ticks)

        Nodes                                         Cuts/
   Node  Left     Objective  IInf  Best Integer    Best Bound    ItCnt     Gap

      0     0     1075.9765   660                   1075.9765     6624         
      0     0     1075.9765     5                    Cuts: 10     6634         
      0     0     1074.7033     5                     Cuts: 4     6639         
      0     0     1074.7033     6                 Flowcuts: 2     6641         
      0     0     1073.7162     7                 Flowcuts: 1     6643         
*     0+    0                          208.8306     1073.7162           414.16%
      0     2        cutoff            208.8306     1062.1534     6654  408.62%
Elapsed time = 6.23 sec. (3516.81 ticks, tree = 0.02 MB, solutions = 4)
*     1     2      integral     0     1055.8323     1060.5352     6671    0.45%

Implied bound cuts applied:  1
Flow cuts applied:  6
Gomory fractional cuts applied:  2

Root node processing (before b&c):
  Real time             =    5.20 sec. (3506.99 ticks)
Parallel b&c, 32 threads:
  Real time             =    1.19 sec. (200.51 ticks)
  Sync time (average)   =    0.46 sec.
  Wait time (average)   =    0.00 sec.
                          ------------
Total (root+branch&cut) =    6.39 sec. (3707.50 ticks)

Solution pool: 4 solutions saved.

MIP - Integer optimal solution:  Objective =  1.0558323055e+03
Solution time =    6.44 sec.  Iterations = 6687  Nodes = 11
Deterministic time = 3707.66 ticks  (575.99 ticks/sec)

CPLEX> Incumbent solution written to file 'C:\Users\llavin\Desktop\test826\logs\tmpa5rr7twb.cplex.sol'.
CPLEX> NOTE: no warmstart specified for MIP iteration, default behavior is true
NOTE: resolving with all competitive generators using storage-only solution to warmstart
Solving...

Welcome to IBM(R) ILOG(R) CPLEX(R) Interactive Optimizer 12.9.0.0
  with Simplex, Mixed Integer & Barrier Optimizers
5725-A06 5725-A29 5724-Y48 5724-Y49 5724-Y54 5724-Y55 5655-Y21
Copyright IBM Corp. 1988, 2019.  All Rights Reserved.

Type 'help' for a list of available commands.
Type 'help' followed by a command name for more
information on commands.

CPLEX> Logfile 'cplex.log' closed.
Logfile 'C:\Users\llavin\Desktop\test826\logs\tmpe1zyyoy8.cplex.log' open.
CPLEX> New value for parallel optimization mode: -1
CPLEX> New value for mixed integer optimality gap tolerance: 0.01
CPLEX> New value for integrality tolerance: 1e-09
CPLEX> New value for feasibility tolerance: 0.001
CPLEX> New value for deterministic time limit in ticks: 75000
CPLEX> Problem 'C:\Users\llavin\Desktop\test826\logs\tmpzv9frfxx.pyomo.lp' read.
Read time = 0.23 sec. (14.75 ticks)
CPLEX> MIP start file 'C:\Users\llavin\Desktop\test826\logs\tmpawtfhc50.cplex.mst' read.
CPLEX> Problem name         : C:\Users\llavin\Desktop\test826\logs\tmpzv9frfxx.pyomo.lp
Objective sense      : Maximize
Variables            :   54525  [Nneg: 1,  Box: 22720,  Free: 4464,
                                 Binary: 27340]
Objective nonzeros   :    9760
Linear constraints   :  123205  [Less: 41346,  Greater: 59096,  Equal: 22763]
  Nonzeros           :  291764
  RHS nonzeros       :   67502

Variables            : Min LB: -5000.000        Max UB: 1000000.       
Objective nonzeros   : Min   : 0.008333333      Max   : 2500.000       
Linear constraints   :
  Nonzeros           : Min   : 0.008333333      Max   : 1000000.       
  RHS nonzeros       : Min   : 0.008333333      Max   : 1000000.       
CPLEX> CPXPARAM_Parallel                                -1
CPXPARAM_Simplex_Tolerances_Feasibility          0.001
CPXPARAM_DetTimeLimit                            75000
CPXPARAM_MIP_Tolerances_MIPGap                   0.01
CPXPARAM_MIP_Tolerances_Integrality              1.0000000000000001e-09
Warning:  No solution found from 1 MIP starts.
Retaining values of one MIP start for possible repair.
Tried aggregator 3 times.
MIP Presolve eliminated 88599 rows and 19651 columns.
MIP Presolve added 3389 rows and 0 columns.
MIP Presolve modified 24906 coefficients.
Aggregator did 12997 substitutions.
Reduced MIP has 24998 rows, 21329 columns, and 71285 nonzeros.
Reduced MIP has 8433 binaries, 0 generals, 0 SOSs, and 0 indicators.
Presolve time = 0.30 sec. (174.18 ticks)
Probing fixed 365 vars, tightened 2850 bounds.
Probing time = 1.19 sec. (857.32 ticks)
Tried aggregator 2 times.
MIP Presolve eliminated 828 rows and 732 columns.
MIP Presolve modified 2224 coefficients.
Aggregator did 34 substitutions.
Reduced MIP has 24136 rows, 20563 columns, and 68785 nonzeros.
Reduced MIP has 8068 binaries, 0 generals, 0 SOSs, and 0 indicators.
Presolve time = 0.11 sec. (69.54 ticks)
Probing time = 0.05 sec. (15.78 ticks)
Clique table members: 6337.
MIP emphasis: balance optimality and feasibility.
MIP search method: dynamic search.
Parallel mode: opportunistic, using up to 32 threads.
Root relaxation solution time = 0.44 sec. (498.87 ticks)

        Nodes                                         Cuts/
   Node  Left     Objective  IInf  Best Integer    Best Bound    ItCnt     Gap

      0     0     1075.9765   660                   1075.9765     6624         
*     0+    0                          855.4843     1075.9765            25.77%
      0     0     1075.9765     5      855.4843      Cuts: 10     6634   25.77%
      0     0     1074.7033     2      855.4843      Cuts: 17     6641   25.63%
Repair heuristic found nothing.

Repeating presolve.
Tried aggregator 2 times.
MIP Presolve eliminated 9283 rows and 6753 columns.
MIP Presolve modified 20778 coefficients.
Aggregator did 96 substitutions.
Reduced MIP has 14757 rows, 13714 columns, and 43869 nonzeros.
Reduced MIP has 5069 binaries, 0 generals, 0 SOSs, and 0 indicators.
Presolve time = 0.09 sec. (56.50 ticks)
Probing fixed 959 vars, tightened 27437 bounds.
Probing time = 0.20 sec. (97.69 ticks)
Cover probing fixed 14 vars, tightened 2011 bounds.
Tried aggregator 3 times.
MIP Presolve eliminated 7552 rows and 7285 columns.
MIP Presolve modified 2349 coefficients.
Aggregator did 92 substitutions.
Reduced MIP has 7113 rows, 6337 columns, and 23122 nonzeros.
Reduced MIP has 2316 binaries, 0 generals, 0 SOSs, and 0 indicators.
Presolve time = 0.03 sec. (27.54 ticks)
Probing fixed 42 vars, tightened 3459 bounds.
Probing time = 0.06 sec. (20.07 ticks)
Cover probing fixed 4 vars, tightened 146 bounds.
Tried aggregator 2 times.
MIP Presolve eliminated 171 rows and 148 columns.
MIP Presolve modified 1399 coefficients.
Aggregator did 9 substitutions.
Reduced MIP has 6933 rows, 6171 columns, and 22641 nonzeros.
Reduced MIP has 2250 binaries, 0 generals, 0 SOSs, and 0 indicators.
Presolve time = 0.02 sec. (11.95 ticks)
Probing fixed 11 vars, tightened 2316 bounds.
Probing time = 0.03 sec. (12.64 ticks)
Tried aggregator 2 times.
MIP Presolve eliminated 42 rows and 38 columns.
MIP Presolve modified 1328 coefficients.
Aggregator did 4 substitutions.
Reduced MIP has 6887 rows, 6129 columns, and 22485 nonzeros.
Reduced MIP has 2236 binaries, 0 generals, 0 SOSs, and 0 indicators.
Presolve time = 0.02 sec. (18.45 ticks)
Represolve time = 0.63 sec. (316.55 ticks)
Probing fixed 12 vars, tightened 2123 bounds.
Probing time = 0.03 sec. (8.38 ticks)
Clique table members: 2915.
MIP emphasis: balance optimality and feasibility.
MIP search method: dynamic search.
Parallel mode: opportunistic, using up to 32 threads.
Root relaxation solution time = 0.11 sec. (122.38 ticks)

        Nodes                                         Cuts/
   Node  Left     Objective  IInf  Best Integer    Best Bound    ItCnt     Gap

*     0+    0                          855.4843     1074.7033            25.63%
      0     0     1074.5986     7      855.4843     1074.5986     8443   25.61%
*     0+    0                         1055.8323     1074.5986             1.78%
      0     0     1072.9669     4     1055.8323      Cuts: 28     8456    1.62%
      0     0     1066.9932     6     1055.8323      Cuts: 23     8462    1.06%
      0     0     1066.4784     6     1055.8323       Cuts: 6     8466    1.01%

Implied bound cuts applied:  2
Flow cuts applied:  6
Mixed integer rounding cuts applied:  8
Lift and project cuts applied:  1
Gomory fractional cuts applied:  6

Root node processing (before b&c):
  Real time             =    5.83 sec. (3737.77 ticks)
Parallel b&c, 32 threads:
  Real time             =    0.00 sec. (0.00 ticks)
  Sync time (average)   =    0.00 sec.
  Wait time (average)   =    0.00 sec.
                          ------------
Total (root+branch&cut) =    5.83 sec. (3737.77 ticks)

Solution pool: 2 solutions saved.

MIP - Integer optimal, tolerance (0.01/1e-06):  Objective =  1.0558323055e+03
Current MIP best bound =  1.0627135594e+03 (gap = 6.88125, 0.65%)
Solution time =    5.84 sec.  Iterations = 8469  Nodes = 0 (1)
Deterministic time = 3737.92 ticks  (639.73 ticks/sec)

CPLEX> Incumbent solution written to file 'C:\Users\llavin\Desktop\test826\logs\tmpo3j2p6dw.cplex.sol'.
CPLEX> Exporting results... 
